presolving:
(round 1, fast)       6253 del vars, 6240 del conss, 0 add conss, 35040 chg bounds, 0 chg sides, 0 chg coeffs, 0 upgd conss, 0 impls, 78 clqs
(round 2, fast)       6253 del vars, 6240 del conss, 0 add conss, 36480 chg bounds, 0 chg sides, 0 chg coeffs, 0 upgd conss, 0 impls, 78 clqs
   (1.2s) running MILP presolver
   (1.3s) MILP presolver found nothing
(round 3, exhaustive) 6253 del vars, 6240 del conss, 0 add conss, 36480 chg bounds, 0 chg sides, 0 chg coeffs, 78 upgd conss, 0 impls, 78 clqs
   (1.8s) probing: 51/86 (59.3%) - 0 fixings, 0 aggregations, 0 implications, 0 bound changes
   (1.8s) probing aborted: 50/50 successive totally useless probings
   (1.8s) symmetry computation started: requiring (bin +, int -, cont +), (fixed: bin -, int +, cont -)
   (2.0s) no symmetry present
presolving (4 rounds: 4 fast, 2 medium, 2 exhaustive):
 6266 deleted vars, 6318 deleted constraints, 0 added constraints, 36480 tightened bounds, 0 added holes, 0 changed sides, 0 changed coefficients
 0 implications, 0 cliques
presolved problem has 35113 variables (73 bin, 0 int, 0 impl, 35040 cont) and 6313 constraints
   6313 constraints of type <linear>
Presolving Time: 1.74

 time | node  | left  |LP iter|LP it/n|mem/heur|mdpt |vars |cons |rows |cuts |sepa|confs|strbr|  dualbound   | primalbound  |  gap   | compl. 
p 2.8s|     1 |     0 |  1956 |     - |   locks|   0 |  35k|6313 |6313 |   0 |  0 |   0 |   0 |-1.836000e+03 | 2.659337e+07 |    Inf | unknown
i 2.9s|     1 |     0 |  1956 |     - |  oneopt|   0 |  35k|6313 |6313 |   0 |  0 |   0 |   0 |-1.836000e+03 | 2.522366e+07 |    Inf | unknown
  3.2s|     1 |     0 |  3956 |     - |   263M |   0 |  35k|6313 |6313 |   0 |  0 |   0 |   0 | 1.939628e+07 | 2.522366e+07 |  30.04%| unknown
  4.1s|     1 |     0 |  4572 |     - |   275M |   0 |  35k|6313 |6364 |  51 |  1 |   0 |   0 | 2.170206e+07 | 2.522366e+07 |  16.23%| unknown
  5.1s|     1 |     0 |  4719 |     - |   278M |   0 |  35k|6313 |6395 |  82 |  2 |   0 |   0 | 2.210532e+07 | 2.522366e+07 |  14.11%| unknown
  6.0s|     1 |     0 |  4874 |     - |   282M |   0 |  35k|6313 |6425 | 112 |  3 |   0 |   0 | 2.241981e+07 | 2.522366e+07 |  12.51%| unknown
  7.5s|     1 |     0 |  5004 |     - |   286M |   0 |  35k|6313 |6465 | 152 |  4 |   0 |   0 | 2.266545e+07 | 2.522366e+07 |  11.29%| unknown
  8.7s|     1 |     0 |  5109 |     - |   290M |   0 |  35k|6313 |6493 | 180 |  5 |   0 |   0 | 2.281775e+07 | 2.522366e+07 |  10.54%| unknown
  9.9s|     1 |     0 |  5217 |     - |   292M |   0 |  35k|6313 |6519 | 206 |  6 |   0 |   0 | 2.293461e+07 | 2.522366e+07 |   9.98%| unknown
 11.1s|     1 |     0 |  5273 |     - |   293M |   0 |  35k|6313 |6540 | 227 |  7 |   0 |   0 | 2.307399e+07 | 2.522366e+07 |   9.32%| unknown
 12.1s|     1 |     0 |  5326 |     - |   294M |   0 |  35k|6313 |6560 | 247 |  8 |   0 |   0 | 2.314001e+07 | 2.522366e+07 |   9.00%| unknown
 13.0s|     1 |     0 |  5386 |     - |   296M |   0 |  35k|6313 |6579 | 266 |  9 |   0 |   0 | 2.324626e+07 | 2.522366e+07 |   8.51%| unknown
 14.0s|     1 |     0 |  5448 |     - |   299M |   0 |  35k|6313 |6596 | 283 | 10 |   0 |   0 | 2.330965e+07 | 2.522366e+07 |   8.21%| unknown
 15.4s|     1 |     0 |  5642 |     - |   301M |   0 |  35k|6313 |6640 | 327 | 11 |   0 |   0 | 2.340881e+07 | 2.522366e+07 |   7.75%| unknown
 17.1s|     1 |     0 |  5746 |     - |   303M |   0 |  35k|6313 |6667 | 354 | 12 |   0 |   0 | 2.348198e+07 | 2.522366e+07 |   7.42%| unknown
 time | node  | left  |LP iter|LP it/n|mem/heur|mdpt |vars |cons |rows |cuts |sepa|confs|strbr|  dualbound   | primalbound  |  gap   | compl. 
 18.3s|     1 |     0 |  5869 |     - |   304M |   0 |  35k|6313 |6690 | 377 | 13 |   0 |   0 | 2.354582e+07 | 2.522366e+07 |   7.13%| unknown
 19.9s|     1 |     0 |  5980 |     - |   305M |   0 |  35k|6313 |6718 | 405 | 14 |   0 |   0 | 2.359654e+07 | 2.522366e+07 |   6.90%| unknown
 20.8s|     1 |     0 |  6064 |     - |   309M |   0 |  35k|6313 |6740 | 427 | 15 |   0 |   0 | 2.363287e+07 | 2.522366e+07 |   6.73%| unknown
 21.9s|     1 |     0 |  6136 |     - |   309M |   0 |  35k|6313 |6746 | 438 | 16 |   0 |   0 | 2.366393e+07 | 2.522366e+07 |   6.59%| unknown
 22.9s|     1 |     0 |  6213 |     - |   311M |   0 |  35k|6313 |6764 | 456 | 17 |   0 |   0 | 2.369239e+07 | 2.522366e+07 |   6.46%| unknown
r23.0s|     1 |     0 |  6213 |     - |simplero|   0 |  35k|6313 |6764 | 456 | 17 |   0 |   0 | 2.369239e+07 | 2.502297e+07 |   5.62%| unknown
 24.2s|     1 |     0 |  6289 |     - |   312M |   0 |  35k|6313 |6780 | 472 | 18 |   0 |   0 | 2.371053e+07 | 2.502297e+07 |   5.54%| unknown
r24.2s|     1 |     0 |  6289 |     - |simplero|   0 |  35k|6313 |6780 | 472 | 18 |   0 |   0 | 2.371053e+07 | 2.501505e+07 |   5.50%| unknown
 25.1s|     1 |     0 |  6354 |     - |   313M |   0 |  35k|6313 |6796 | 488 | 19 |   0 |   0 | 2.371821e+07 | 2.501505e+07 |   5.47%| unknown
 25.8s|     1 |     0 |  6382 |     - |   317M |   0 |  35k|6313 |6805 | 497 | 20 |   0 |   0 | 2.371973e+07 | 2.501505e+07 |   5.46%| unknown
 26.6s|     1 |     0 |  6405 |     - |   318M |   0 |  35k|6313 |6810 | 502 | 21 |   0 |   0 | 2.372306e+07 | 2.501505e+07 |   5.45%| unknown
 27.8s|     1 |     0 |  6419 |     - |   318M |   0 |  35k|6313 |6792 | 514 | 22 |   0 |   0 | 2.372750e+07 | 2.501505e+07 |   5.43%| unknown
r27.9s|     1 |     0 |  6419 |     - |simplero|   0 |  35k|6313 |6792 | 514 | 22 |   0 |   0 | 2.372750e+07 | 2.409467e+07 |   1.55%| unknown
 28.3s|     1 |     0 |  6429 |     - |   318M |   0 |  35k|6313 |6794 | 516 | 24 |   0 |   0 | 2.372757e+07 | 2.409467e+07 |   1.55%| unknown
r28.4s|     1 |     0 |  6429 |     - |simplero|   0 |  35k|6313 |6794 | 516 | 24 |   0 |   0 | 2.372757e+07 | 2.409284e+07 |   1.54%| unknown
 time | node  | left  |LP iter|LP it/n|mem/heur|mdpt |vars |cons |rows |cuts |sepa|confs|strbr|  dualbound   | primalbound  |  gap   | compl. 
 28.9s|     1 |     0 |  6430 |     - |   318M |   0 |  35k|6313 |6795 | 517 | 25 |   0 |   0 | 2.372757e+07 | 2.409284e+07 |   1.54%| unknown
 29.4s|     1 |     0 |  6431 |     - |   320M |   0 |  35k|6313 |6796 | 518 | 26 |   0 |   0 | 2.372757e+07 | 2.409284e+07 |   1.54%| unknown
 29.7s|     1 |     0 |  6432 |     - |   320M |   0 |  35k|6313 |6797 | 519 | 27 |   0 |   0 | 2.372764e+07 | 2.409284e+07 |   1.54%| unknown
r29.8s|     1 |     0 |  6432 |     - |simplero|   0 |  35k|6313 |6797 | 519 | 27 |   0 |   0 | 2.372764e+07 | 2.404864e+07 |   1.35%| unknown
r30.2s|     1 |     0 |  6458 |     - |intshift|   0 |  35k|6313 |6797 | 519 | 29 |   0 |   0 | 2.372764e+07 | 2.376725e+07 |   0.17%| unknown
d30.3s|     1 |     0 |  6466 |     - |farkasdi|   0 |  35k|6313 |6797 |   0 | 29 |   0 |   0 | 2.372764e+07 | 2.373428e+07 |   0.03%| unknown
L33.2s|     1 |     0 |  6466 |     - |    rens|   0 |  35k|6313 |6797 | 519 | 29 |   0 |   0 | 2.372764e+07 | 2.373217e+07 |   0.02%| unknown
 34.3s|     1 |     0 |  6466 |     - |   324M |   0 |  35k|6313 |6797 | 519 | 29 |   0 |   0 | 2.372764e+07 | 2.373217e+07 |   0.02%| unknown
 34.4s|     1 |     0 |  6466 |     - |   325M |   0 |  35k|6313 |6793 | 519 | 29 |   0 |   0 | 2.372764e+07 | 2.373217e+07 |   0.02%| unknown
 34.7s|     1 |     0 |  6466 |     - |   325M |   0 |  35k|6308 |6793 | 519 | 31 |   0 |   0 | 2.372764e+07 | 2.373217e+07 |   0.02%| unknown
(run 1, node 1) restarting after 8 global fixings of integer variables

(restart) converted 480 cuts from the global cut pool into linear constraints

presolving:
(round 1, fast)       2408 del vars, 13 del conss, 0 add conss, 0 chg bounds, 0 chg sides, 0 chg coeffs, 0 upgd conss, 0 impls, 0 clqs
presolving (2 rounds: 2 fast, 1 medium, 1 exhaustive):
 2408 deleted vars, 13 deleted constraints, 0 added constraints, 0 tightened bounds, 0 added holes, 0 changed sides, 0 changed coefficients
 0 implications, 0 cliques
presolved problem has 32705 variables (65 bin, 0 int, 0 impl, 32640 cont) and 6775 constraints
   6774 constraints of type <linear>
      1 constraints of type <logicor>
Presolving Time: 2.44
transformed 20/33 original solutions to the transformed problem space

 time | node  | left  |LP iter|LP it/n|mem/heur|mdpt |vars |cons |rows |cuts |sepa|confs|strbr|  dualbound   | primalbound  |  gap   | compl. 
 37.4s|     1 |     0 | 10123 |     - |   355M |   0 |  32k|6775 |6775 |   0 |  0 |   0 |   0 | 2.372764e+07 | 2.373217e+07 |   0.02%| unknown
 37.5s|     1 |     0 | 10123 |     - |   355M |   0 |  32k|6775 |6775 |   0 |  0 |   0 |   0 | 2.372764e+07 | 2.373217e+07 |   0.02%| unknown
 38.0s|     1 |     0 | 10128 |     - |   357M |   0 |  32k|6775 |6776 |   1 |  1 |   0 |   0 | 2.372950e+07 | 2.373217e+07 |   0.01%| unknown
 38.4s|     1 |     0 | 10134 |     - |   358M |   0 |  32k|6775 |6778 |   3 |  2 |   0 |   0 | 2.372960e+07 | 2.373217e+07 |   0.01%| unknown
 38.8s|     1 |     0 | 10137 |     - |   359M |   0 |  32k|6775 |6779 |   4 |  3 |   0 |   0 | 2.373041e+07 | 2.373217e+07 |   0.01%| unknown
 39.1s|     1 |     0 | 10159 |     - |   360M |   0 |  32k|6775 |6781 |   6 |  4 |   0 |   0 | 2.373153e+07 | 2.373217e+07 |   0.00%| unknown
 39.2s|     1 |     0 | 10159 |     - |   360M |   0 |  32k|6775 |6781 |   6 |  4 |   0 |   0 | 2.373153e+07 | 2.373217e+07 |   0.00%| unknown
 39.6s|     1 |     0 | 10162 |     - |   360M |   0 |  32k|6775 |6783 |   8 |  5 |   0 |   0 | 2.373217e+07 | 2.373217e+07 |   0.00%| unknown
 39.6s|     1 |     0 | 10162 |     - |   360M |   0 |  32k|6775 |6783 |   8 |  5 |   0 |   0 | 2.373217e+07 | 2.373217e+07 |   0.00%| unknown

SCIP Status        : problem is solved [optimal solution found]
Solving Time (sec) : 39.55
Solving Nodes      : 1 (total of 2 nodes in 2 runs)
Primal Bound       : +2.37321727922384e+07 (54 solutions)
Dual Bound         : +2.37321727922384e+07
Gap                : 0.00 %
Solve Status: optimal
Solve Time: 39.64 seconds
